
Gurobi 11.0.1 (win64) logging started Sun Mar 17 01:19:51 2024

Set parameter LogFile to value "res/logfile/leo1log.txt"
Gurobi Optimizer version 11.0.1 build v11.0.1rc0 (win64 - Windows 11.0 (22621.2))

CPU model: AMD Ryzen Threadripper PRO 5975WX 32-Cores, instruction set [SSE2|AVX|AVX2]
Thread count: 32 physical cores, 64 logical processors, using up to 10 threads

Optimize a model with 590 rows, 6731 columns and 131215 nonzeros
Model fingerprint: 0x9952bf17
Variable types: 1 continuous, 6730 integer (6730 binary)
Coefficient statistics:
  Matrix range     [1e+00, 9e+07]
  Objective range  [1e+00, 1e+00]
  Bounds range     [1e+00, 1e+00]
  RHS range        [1e+00, 4e+01]
Found heuristic solution: objective 1.157810e+09
Presolve removed 76 rows and 20 columns
Presolve time: 0.08s
Presolved: 514 rows, 6711 columns, 70421 nonzeros
Found heuristic solution: objective 7.117133e+08
Variable types: 0 continuous, 6711 integer (6711 binary)
Found heuristic solution: objective 6.150672e+08

Root relaxation: objective 3.899400e+08, 310 iterations, 0.02 seconds (0.04 work units)

    Nodes    |    Current Node    |     Objective Bounds      |     Work
 Expl Unexpl |  Obj  Depth IntInf | Incumbent    BestBd   Gap | It/Node Time

     0     0 3.8994e+08    0   63 6.1507e+08 3.8994e+08  36.6%     -    0s
H    0     0                    4.464285e+08 3.8994e+08  12.7%     -    0s
H    0     0                    4.423823e+08 3.8994e+08  11.9%     -    0s
     0     0 3.9199e+08    0   71 4.4238e+08 3.9199e+08  11.4%     -    0s
H    0     0                    4.230203e+08 3.9199e+08  7.33%     -    1s
H    0     0                    4.228395e+08 3.9308e+08  7.04%     -    1s
     0     0 3.9319e+08    0   73 4.2284e+08 3.9319e+08  7.01%     -    1s
     0     0 3.9319e+08    0   75 4.2284e+08 3.9319e+08  7.01%     -    1s
     0     0 3.9319e+08    0   77 4.2284e+08 3.9319e+08  7.01%     -    1s
     0     0 3.9321e+08    0   77 4.2284e+08 3.9321e+08  7.01%     -    1s
H    0     0                    4.220046e+08 3.9321e+08  6.82%     -    1s
     0     0 3.9409e+08    0   79 4.2200e+08 3.9409e+08  6.61%     -    1s
H    0     0                    4.188999e+08 3.9409e+08  5.92%     -    1s
     0     0 3.9481e+08    0   84 4.1890e+08 3.9481e+08  5.75%     -    1s
     0     0 3.9520e+08    0   88 4.1890e+08 3.9520e+08  5.66%     -    1s
     0     0 3.9540e+08    0   85 4.1890e+08 3.9540e+08  5.61%     -    1s
     0     0 3.9543e+08    0   87 4.1890e+08 3.9543e+08  5.60%     -    1s
     0     0 3.9545e+08    0   91 4.1890e+08 3.9545e+08  5.60%     -    1s
     0     0 3.9545e+08    0   91 4.1890e+08 3.9545e+08  5.60%     -    1s
     0     0 3.9596e+08    0   96 4.1890e+08 3.9596e+08  5.48%     -    1s
H    0     0                    4.166545e+08 3.9610e+08  4.93%     -    1s
     0     0 3.9610e+08    0  100 4.1665e+08 3.9610e+08  4.93%     -    1s
     0     0 3.9615e+08    0   98 4.1665e+08 3.9615e+08  4.92%     -    1s
     0     0 3.9615e+08    0   98 4.1665e+08 3.9615e+08  4.92%     -    1s
H    0     0                    4.141566e+08 3.9615e+08  4.35%     -    1s
H    0     0                    4.140264e+08 3.9615e+08  4.32%     -    1s
     0     0 3.9643e+08    0   96 4.1403e+08 3.9643e+08  4.25%     -    2s
     0     0 3.9659e+08    0   95 4.1403e+08 3.9659e+08  4.21%     -    2s
     0     0 3.9665e+08    0   97 4.1403e+08 3.9665e+08  4.20%     -    2s
     0     0 3.9670e+08    0  100 4.1403e+08 3.9670e+08  4.19%     -    2s
     0     0 3.9672e+08    0  102 4.1403e+08 3.9672e+08  4.18%     -    2s
     0     0 3.9673e+08    0   99 4.1403e+08 3.9673e+08  4.18%     -    2s
     0     0 3.9673e+08    0  100 4.1403e+08 3.9673e+08  4.18%     -    2s
     0     0 3.9680e+08    0  102 4.1403e+08 3.9680e+08  4.16%     -    2s
     0     0 3.9693e+08    0   96 4.1403e+08 3.9693e+08  4.13%     -    2s
     0     0 3.9697e+08    0   96 4.1403e+08 3.9697e+08  4.12%     -    2s
     0     0 3.9698e+08    0   96 4.1403e+08 3.9698e+08  4.12%     -    2s
     0     0 3.9699e+08    0   99 4.1403e+08 3.9699e+08  4.12%     -    2s
H    0     0                    4.115907e+08 3.9699e+08  3.55%     -    3s
     0     0 3.9700e+08    0   99 4.1159e+08 3.9700e+08  3.55%     -    3s
H    0     0                    4.109847e+08 3.9700e+08  3.40%     -    3s
     0     0 3.9700e+08    0   99 4.1098e+08 3.9700e+08  3.40%     -    3s
     0     0 3.9715e+08    0  101 4.1098e+08 3.9715e+08  3.37%     -    3s
     0     0 3.9717e+08    0  104 4.1098e+08 3.9717e+08  3.36%     -    3s
     0     0 3.9722e+08    0  103 4.1098e+08 3.9722e+08  3.35%     -    3s
     0     0 3.9732e+08    0  107 4.1098e+08 3.9732e+08  3.33%     -    3s
H    0     0                    4.087401e+08 3.9732e+08  2.79%     -    3s
     0     0 3.9736e+08    0  111 4.0874e+08 3.9736e+08  2.78%     -    3s
     0     0 3.9737e+08    0  110 4.0874e+08 3.9737e+08  2.78%     -    3s
     0     0 3.9738e+08    0  112 4.0874e+08 3.9738e+08  2.78%     -    3s
     0     0 3.9738e+08    0  111 4.0874e+08 3.9738e+08  2.78%     -    3s
     0     0 3.9745e+08    0  113 4.0874e+08 3.9745e+08  2.76%     -    3s
     0     0 3.9746e+08    0  110 4.0874e+08 3.9746e+08  2.76%     -    4s
     0     0 3.9747e+08    0  113 4.0874e+08 3.9747e+08  2.76%     -    4s
     0     0 3.9748e+08    0  112 4.0874e+08 3.9748e+08  2.75%     -    4s
     0     0 3.9749e+08    0  111 4.0874e+08 3.9749e+08  2.75%     -    4s
     0     0 3.9750e+08    0   63 4.0874e+08 3.9750e+08  2.75%     -    4s
     0     0 3.9750e+08    0   72 4.0874e+08 3.9750e+08  2.75%     -    4s
     0     0 3.9750e+08    0   71 4.0874e+08 3.9750e+08  2.75%     -    5s
     0     0 3.9750e+08    0   84 4.0874e+08 3.9750e+08  2.75%     -    5s
     0     0 3.9750e+08    0   87 4.0874e+08 3.9750e+08  2.75%     -    5s
     0     0 3.9750e+08    0   92 4.0874e+08 3.9750e+08  2.75%     -    5s
     0     0 3.9750e+08    0   92 4.0874e+08 3.9750e+08  2.75%     -    5s
     0     0 3.9750e+08    0   95 4.0874e+08 3.9750e+08  2.75%     -    5s
     0     0 3.9750e+08    0  100 4.0874e+08 3.9750e+08  2.75%     -    5s
     0     0 3.9750e+08    0  100 4.0874e+08 3.9750e+08  2.75%     -    5s
     0     0 3.9750e+08    0  101 4.0874e+08 3.9750e+08  2.75%     -    5s
     0     0 3.9750e+08    0  104 4.0874e+08 3.9750e+08  2.75%     -    5s
     0     0 3.9750e+08    0  104 4.0874e+08 3.9750e+08  2.75%     -    5s
     0     0 3.9750e+08    0  106 4.0874e+08 3.9750e+08  2.75%     -    5s
     0     0 3.9750e+08    0  107 4.0874e+08 3.9750e+08  2.75%     -    5s
     0     0 3.9773e+08    0  104 4.0874e+08 3.9773e+08  2.69%     -    5s
     0     0 3.9774e+08    0  105 4.0874e+08 3.9774e+08  2.69%     -    5s
     0     0 3.9775e+08    0  107 4.0874e+08 3.9775e+08  2.69%     -    5s
     0     0 3.9778e+08    0  111 4.0874e+08 3.9778e+08  2.68%     -    5s
     0     0 3.9778e+08    0  111 4.0874e+08 3.9778e+08  2.68%     -    5s
     0     2 3.9778e+08    0  111 4.0874e+08 3.9778e+08  2.68%     -    6s
H   47    56                    4.084707e+08 3.9801e+08  2.56%  69.6    6s
H 1272  1266                    4.077874e+08 3.9801e+08  2.40%  25.5    8s
H 1280  1246                    4.070363e+08 3.9801e+08  2.22%  25.5    8s
  2931  2977 4.0426e+08  252   62 4.0704e+08 3.9801e+08  2.22%  24.5   10s
H 3034  2801                    4.059290e+08 3.9801e+08  1.95%  24.3   10s
  3564  3147 4.0097e+08   42  120 4.0593e+08 3.9998e+08  1.46%  23.8   15s
  3617  3182 4.0209e+08   20  124 4.0593e+08 4.0066e+08  1.30%  23.4   20s
  4087  3467 4.0138e+08   46  109 4.0593e+08 4.0106e+08  1.20%  30.4   25s
 11046  6150 4.0150e+08   40  112 4.0593e+08 4.0107e+08  1.20%  36.9   30s
 16610  9480 4.0331e+08   40   74 4.0593e+08 4.0227e+08  0.90%  35.8   35s
 26104 17160 4.0427e+08   75   69 4.0593e+08 4.0263e+08  0.81%  34.8   40s
 32956 21351 4.0509e+08  125  111 4.0593e+08 4.0283e+08  0.76%  35.2   51s
 33002 21382 4.0480e+08   49  127 4.0593e+08 4.0283e+08  0.76%  35.2   55s
 33004 21386 4.0283e+08   38  119 4.0593e+08 4.0283e+08  0.76%  35.3   60s
H34355 20658                    4.058337e+08 4.0283e+08  0.74%  36.2   64s
 34970 20980 4.0469e+08   89   87 4.0583e+08 4.0283e+08  0.74%  36.4   65s
 43270 23726 4.0409e+08   44   80 4.0583e+08 4.0310e+08  0.67%  37.5   70s
H43973 18894                    4.047351e+08 4.0313e+08  0.40%  37.4   71s
*44733 17967              54    4.047247e+08 4.0321e+08  0.37%  37.8   72s
*46945 14968              77    4.042824e+08 4.0346e+08  0.20%  38.8   73s
*47740 13276              65    4.042481e+08 4.0361e+08  0.16%  39.3   74s
*47745 12354              66    4.042275e+08 4.0361e+08  0.15%  39.3   74s
 48749 11052     cutoff   55      4.0423e+08 4.0387e+08  0.09%  40.0   75s

Cutting planes:
  Gomory: 4
  Cover: 4
  MIR: 157
  StrongCG: 15
  Flow cover: 41
  GUB cover: 2
  Zero half: 6
  Mod-K: 1

Explored 50003 nodes (2003333 simplex iterations) in 75.32 seconds (158.49 work units)
Thread count was 10 (of 64 available processors)

Solution count 10: 4.04228e+08 4.04248e+08 4.04282e+08 ... 4.08471e+08

Optimal solution found (tolerance 1.00e-04)
Best objective 4.042275361600e+08, best bound 4.042275361600e+08, gap 0.0000%

User-callback calls 104081, time in user-callback 0.00 sec
